(set-info :status unknown)
(declare-const symbol_71 (_ BitVec 32))
(declare-const symbol_55 (_ BitVec 32))
(declare-const symbol_32 (_ BitVec 32))
(declare-const symbol_78 (_ BitVec 32))
(declare-const symbol_73 (_ BitVec 32))
(declare-const symbol_42 (_ BitVec 32))
(declare-const symbol_60 (_ BitVec 32))
(declare-const symbol_10 (_ BitVec 32))
(declare-const symbol_75 (_ BitVec 32))
(declare-const symbol_26 (_ BitVec 32))
(declare-const symbol_28 (_ BitVec 32))
(declare-const symbol_0 (_ BitVec 32))
(declare-const symbol_44 (_ BitVec 32))
(declare-const symbol_65 (_ BitVec 32))
(declare-const symbol_36 (_ BitVec 32))
(declare-const symbol_64 (_ BitVec 32))
(declare-const symbol_52 (_ BitVec 32))
(declare-const symbol_16 (_ BitVec 32))
(declare-const symbol_34 (_ BitVec 32))
(declare-const symbol_3 (_ BitVec 32))
(declare-const symbol_14 (_ BitVec 32))
(declare-const symbol_46 (_ BitVec 32))
(declare-const symbol_38 (_ BitVec 32))
(declare-const symbol_24 (_ BitVec 32))
(declare-const symbol_57 (_ BitVec 32))
(declare-const symbol_22 (_ BitVec 32))
(declare-const symbol_67 (_ BitVec 32))
(declare-const symbol_62 (_ BitVec 32))
(declare-const symbol_80 (_ BitVec 32))
(declare-const symbol_50 (_ BitVec 32))
(declare-const symbol_18 (_ BitVec 32))
(declare-const symbol_40 (_ BitVec 32))
(declare-const symbol_30 (_ BitVec 32))
(declare-const symbol_2 (_ BitVec 32))
(declare-const symbol_20 (_ BitVec 32))
(declare-const symbol_7 (_ BitVec 32))
(declare-const symbol_53 (_ BitVec 32))
(declare-const symbol_59 (_ BitVec 32))
(declare-const symbol_69 (_ BitVec 32))
(declare-const symbol_12 (_ BitVec 32))
(declare-const symbol_76 (_ BitVec 32))
(declare-const symbol_5 (_ BitVec 32))
(declare-const symbol_48 (_ BitVec 32))
(assert (not (= symbol_80 (_ bv8 32))))
(assert (not (not (= symbol_80 (_ bv7 32)))))
(assert (not (not (= symbol_78 (_ bv7 32)))))
(assert (not (not (= symbol_76 (_ bv7 32)))))
(assert (not (not (= symbol_75 (_ bv7 32)))))
(assert (not (not (= symbol_73 (_ bv7 32)))))
(assert (not (not (= symbol_71 (_ bv7 32)))))
(assert (not (not (= symbol_69 (_ bv7 32)))))
(assert (not (not (= symbol_67 (_ bv7 32)))))
(assert (not (not (= symbol_65 (_ bv7 32)))))
(assert (not (not (= symbol_64 (_ bv7 32)))))
(assert (not (not (= symbol_62 (_ bv7 32)))))
(assert (not (not (= symbol_60 (_ bv7 32)))))
(assert (not (not (= symbol_59 (_ bv7 32)))))
(assert (not (not (= symbol_57 (_ bv7 32)))))
(assert (not (not (= symbol_55 (_ bv7 32)))))
(assert (not (not (= symbol_53 (_ bv7 32)))))
(assert (not (not (= symbol_52 (_ bv7 32)))))
(assert (not (not (= symbol_50 (_ bv7 32)))))
(assert (not (not (= symbol_48 (_ bv7 32)))))
(assert (not (not (= symbol_46 (_ bv7 32)))))
(assert (not (not (= symbol_44 (_ bv7 32)))))
(assert (not (not (= symbol_42 (_ bv7 32)))))
(assert (not (not (= symbol_40 (_ bv7 32)))))
(assert (not (not (= symbol_38 (_ bv7 32)))))
(assert (not (not (= symbol_36 (_ bv7 32)))))
(assert (not (not (= symbol_34 (_ bv7 32)))))
(assert (not (not (= symbol_32 (_ bv7 32)))))
(assert (not (not (= symbol_30 (_ bv7 32)))))
(assert (not (not (= symbol_28 (_ bv7 32)))))
(assert (not (not (= symbol_26 (_ bv7 32)))))
(assert (not (not (= symbol_24 (_ bv7 32)))))
(assert (not (not (= symbol_22 (_ bv7 32)))))
(assert (not (not (= symbol_20 (_ bv7 32)))))
(assert (not (not (= symbol_18 (_ bv7 32)))))
(assert (not (not (= symbol_16 (_ bv7 32)))))
(assert (not (not (= symbol_14 (_ bv7 32)))))
(assert (not (not (= symbol_12 (_ bv7 32)))))
(assert (not (not (= symbol_10 (_ bv7 32)))))
(assert (not (not (= symbol_7 (_ bv7 32)))))
(assert (not (not (= symbol_5 (_ bv7 32)))))
(assert (not (not (= symbol_3 (_ bv7 32)))))
(assert (not (not (= symbol_2 (_ bv7 32)))))
(assert (not (not (= symbol_0 (_ bv10 32)))))
(assert (not (= symbol_0 (_ bv7 32))))
(check-sat)